HEIGHT = 29;
WIDTH = 31;
AGENTS = 14;
TUNNEL_4 = true;
TUNNEL_6 = true;

path = array2d(1..AGENTS, Marker,
  [|(y:  4, x:  5, d: ">"), (y: 26, x: 27, d: "v") % steel
   |(y:  4, x: 13, d: "v"), (y: 26, x: 19, d: "v") % coal
   |(y:  4, x: 15, d: "v"), (y: 27, x:  4, d: "<") % signal
   |(y:  4, x: 17, d: "v"), (y: 26, x: 15, d: "v") % green circuits
   |(y:  5, x:  4, d: "v"), (y: 25, x: 28, d: ">") % gears
   |(y: 12, x:  4, d: ">"), (y: 18, x: 28, d: ">") % iron plate
   |(y: 14, x:  4, d: ">"), (y: 27, x: 28, d: ">") % red circuits
   |(y: 16, x:  4, d: ">"), (y: 14, x: 28, d: ">") % copper plate
   |(y: 18, x:  4, d: ">"), (y:  4, x: 19, d: "^") % rails
   |(y: 25, x:  4, d: "^"), (y:  4, x: 27, d: "^") % wood
   |(y: 26, x:  5, d: ">"), (y:  5, x: 28, d: ">") % copper ore
   |(y: 26, x: 13, d: "^"), (y: 12, x: 28, d: ">") % pancake (or cheese according to Jonathan)
   |(y: 26, x: 17, d: "^"), (y:  4, x: 29, d: "^") % fish
   |(y: 16, x: 28, d: "<"), (y:  4, x:  3, d: "^") % uranium ore
   |]); 

walls =
  [|0,0,0,0,0,   0,0,1,1,0,   0,0,0,0,0,   0,0,0,0,0,   0,0,1,1,0,   0,0,0,0,0,   0
   |0,0,1,0,1,   0,0,1,1,0,   0,0,1,0,1,   0,1,0,1,0,   0,0,1,1,0,   0,1,0,1,0,   0
   |0,0,1,0,1,   0,0,1,1,0,   0,0,1,0,1,   0,1,0,1,0,   0,0,1,1,0,   0,1,0,1,0,   0
   |0,0,0,0,0,   0,0,0,1,0,   0,0,0,0,0,   0,0,0,0,0,   0,0,1,0,0,   0,0,0,0,0,   0
   |0,1,1,0,0,   0,0,0,0,1,   0,0,0,0,0,   0,0,0,0,0,   0,1,0,0,0,   0,0,0,1,1,   0
   
   |0,0,0,0,0,   0,0,0,0,0,   1,1,1,1,1,   1,1,1,1,1,   1,0,0,0,0,   0,0,0,0,0,   0
   |0,0,0,0,0,   0,0,0,0,0,   0,0,0,0,0,   0,0,0,0,0,   0,0,0,0,0,   0,0,0,0,0,   0
   |1,1,1,0,0,   0,0,0,0,0,   0,0,0,0,0,   0,0,0,0,0,   0,0,0,0,0,   0,0,0,1,1,   1
   |1,1,1,1,0,   0,0,0,1,1,   0,0,0,0,0,   0,0,0,0,0,   0,1,1,0,0,   0,0,1,1,1,   1
   |0,0,0,0,1,   0,0,0,1,1,   0,0,0,0,0,   0,0,0,0,0,   0,1,1,0,0,   0,1,0,0,0,   0
   
   |0,0,0,0,0,   1,0,0,0,0,   0,0,0,0,0,   0,0,0,0,0,   0,0,0,0,0,   1,0,0,0,0,   0
   |0,1,1,0,0,   1,0,0,0,0,   0,0,1,1,1,   0,1,1,1,0,   0,0,0,0,0,   1,0,0,1,1,   0
   |0,0,0,0,0,   1,0,0,0,0,   0,0,1,1,1,   0,1,1,1,0,   0,0,0,0,0,   1,0,0,0,0,   0
   |0,1,1,0,0,   1,0,0,0,0,   0,0,1,1,1,   0,1,1,1,0,   0,0,0,0,0,   1,0,0,1,1,   0
   |0,0,0,0,0,   1,0,0,0,0,   0,0,0,0,0,   0,0,0,0,0,   0,0,0,0,0,   1,0,0,0,0,   0
   
   |0,1,1,0,0,   1,0,0,0,0,   0,0,1,1,1,   0,1,1,1,0,   0,0,0,0,0,   1,0,0,1,1,   0
   |0,0,0,0,0,   1,0,0,0,0,   0,0,1,1,1,   0,1,1,1,0,   0,0,0,0,0,   1,0,0,0,0,   0
   |0,1,1,0,0,   1,0,0,0,0,   0,0,1,1,1,   0,1,1,1,0,   0,0,0,0,0,   1,0,0,1,1,   0
   |0,0,0,0,0,   1,0,0,0,0,   0,0,0,0,0,   0,0,0,0,0,   0,0,0,0,0,   1,0,0,0,0,   0
   |0,0,0,0,1,   0,0,0,1,1,   0,0,0,0,0,   0,0,0,0,0,   0,1,1,0,0,   0,1,0,0,0,   0
   
   |1,1,1,1,0,   0,0,0,1,1,   0,0,0,0,0,   0,0,0,0,0,   0,1,1,0,0,   0,0,1,1,1,   1
   |1,1,1,0,0,   0,0,0,0,0,   0,0,0,0,0,   0,0,0,0,0,   0,0,0,0,0,   0,0,0,1,1,   1
   |0,0,0,0,0,   0,0,0,0,0,   0,0,0,0,0,   0,0,0,0,0,   0,0,0,0,0,   0,0,0,0,0,   0
   |0,0,0,0,0,   0,0,0,0,0,   1,1,1,1,1,   1,1,1,1,1,   1,0,0,0,0,   0,0,0,0,0,   0
   |0,1,1,0,0,   0,0,0,0,1,   0,0,0,0,0,   0,0,0,0,0,   0,1,0,0,0,   0,0,0,1,1,   0
   
   |0,0,0,0,0,   0,0,0,1,0,   0,0,0,0,0,   0,0,0,0,0,   0,0,1,0,0,   0,0,0,0,0,   0
   |0,1,1,0,1,   0,0,1,1,0,   0,0,1,0,1,   0,1,0,1,0,   0,0,1,1,0,   0,1,0,1,1,   0
   |0,0,0,0,1,   0,0,1,1,0,   0,0,1,0,1,   0,1,0,1,0,   0,0,1,1,0,   0,1,0,0,0,   0
   |0,0,0,0,0,   0,0,1,1,0,   0,0,0,0,0,   0,0,0,0,0,   0,0,1,1,0,   0,0,0,0,0,   0|];
